! Solving for graph ../../../benchmarks/abp/Q-494_bus.mtx.rnd
! Target value is set to 165
 ! --------------------------------------------------- CP Optimizer 22.2.0.0 --
 ! Minimization problem - 495 variables, 1080 constraints, 1 phase
 ! TimeLimit            = 1800
 ! LogVerbosity         = Terse
 ! Initial process time : 0.02s (0.02s extraction + 0.00s propagation)
 !  . Log search space  : 4429.4 (before), 4429.4 (after)
 !  . Memory usage      : 723.5 kB (before), 723.5 kB (after)
 ! Using parallel search with 8 workers.
 ! ----------------------------------------------------------------------------
 !          Best Branches  Non-fixed    W       Branch decision
                        0        495                 -
 + New bound is 1
                        0        495    1   F        -
 + New bound is 166
                        2        494    1   F     1 != _int57
 + New bound is 167
 *           331      490  0.12s        1      (gap is 49.55%)
             331     5187        495    1   F        -
 + New bound is 250 (gap is 24.47%)
             331     9987        495    1   F        -
 + New bound is 251 (gap is 24.17%)
             331    10169        495    2   F   110 != _int282
 + New bound is 312 (gap is 5.74%)
             331    13297        495    4            -
 + New bound is 331 (gap is 0.00%)
 ! ----------------------------------------------------------------------------
 ! Search completed, 1 solution found.
 ! Best objective         : 331 (optimal - effective tol. is 0)
 ! Best bound             : 331
 ! ----------------------------------------------------------------------------
 ! Number of branches     : 235902
 ! Number of fails        : 115891
 ! Total memory usage     : 42.1 MB (41.7 MB CP Optimizer + 0.4 MB Concert)
 ! Time spent in solve    : 1.65s (1.63s engine + 0.02s extraction)
 ! Search speed (br. / s) : 145618.5
 ! ----------------------------------------------------------------------------
! --------------------------------------------------------
! Best span = 331
! Labeling: 166 1 166 166 1 1 166 166 1 331 1 1 1 166 166 1 166 1 1 166 166 166 1 1 166 1 1 331 1 166 166 331 1 1 166 166 166 1 166 166 1 166 166 1 166 1 166 1 166 166 1 1 166 166 166 166 1 1 1 1 166 166 166 166 1 166 166 1 166 1 166 166 1 1 1 1 1 166 1 1 166 166 1 1 331 1 1 331 166 166 1 1 1 331 1 1 166 166 331 166 1 166 166 331 166 166 331 166 166 166 166 166 166 1 166 1 166 166 1 1 166 1 166 166 1 166 1 1 1 166 1 1 1 166 331 166 166 1 1 166 166 166 1 1 166 1 166 1 1 1 1 166 166 166 331 1 166 1 1 166 1 1 1 166 331 166 1 166 166 1 331 1 166 1 1 166 1 166 1 331 166 1 331 1 1 166 1 1 166 1 1 1 1 1 1 1 166 166 1 1 1 1 1 331 331 166 166 1 166 166 331 331 1 166 166 1 1 1 166 166 166 1 1 166 1 1 166 1 1 1 331 1 1 331 1 1 331 1 166 166 1 166 1 166 166 1 166 1 1 1 166 1 166 166 1 166 1 166 1 1 1 1 331 166 331 1 1 1 166 331 166 166 1 1 166 331 166 166 1 166 1 166 1 166 331 1 166 1 1 166 1 166 331 1 1 1 1 1 1 166 166 1 166 166 1 166 166 1 166 166 1 166 1 1 166 1 331 1 1 331 166 1 166 166 331 166 331 166 166 331 166 1 166 166 1 1 1 1 166 166 166 1 166 1 1 1 1 166 166 166 166 1 1 1 166 331 1 166 166 166 331 331 1 166 166 1 166 166 166 1 1 1 1 166 1 166 1 1 166 166 166 1 1 1 166 166 166 166 1 166 1 1 1 1 331 1 166 331 166 166 166 1 1 166 166 166 1 1 166 331 1 166 1 1 1 1 331 166 166 166 1 1 166 1 1 166 166 166 166 331 166 1 1 1 166 166 1 1 1 1 1 166 1 1 1 166 1 166 1 166 1 331 166 1 331 1 1 166 166 166 166 166 1 1 166 166 331 166 166 166 1 1 1 166 166 1 331 166 166 166 166 166 1 1 166 1 1 1 166 331 166 1 1 166 
! -------------------------------------------------------- 
